Version identifier: 22.1.1.0 | 2022-11-28 | 9160aff4d
CPXPARAM_Read_DataCheck                          1
CPXPARAM_MIP_Cuts_Covers                         1
CPXPARAM_MIP_Cuts_FlowCovers                     1
CPXPARAM_MIP_Cuts_MIRCut                         1
CPXPARAM_TimeLimit                               60
Tried aggregator 2 times.
MIP Presolve eliminated 10 rows and 1 columns.
MIP Presolve added 16 rows and 0 columns.
MIP Presolve modified 2091 coefficients.
Aggregator did 3 substitutions.
Reduced MIP has 732 rows, 1013 columns, and 5191 nonzeros.
Reduced MIP has 989 binaries, 0 generals, 0 SOSs, and 0 indicators.
Presolve time = 0.00 sec. (5.58 ticks)
Found incumbent of value 3230.000000 after 0.01 sec. (13.16 ticks)
Probing time = 0.00 sec. (2.69 ticks)
Tried aggregator 1 time.
Detecting symmetries...
Reduced MIP has 732 rows, 1013 columns, and 5191 nonzeros.
Reduced MIP has 989 binaries, 0 generals, 0 SOSs, and 0 indicators.
Presolve time = 0.00 sec. (3.14 ticks)
Probing time = 0.00 sec. (2.67 ticks)
Clique table members: 3193.
MIP emphasis: balance optimality and feasibility.
MIP search method: dynamic search.
Parallel mode: deterministic, using up to 12 threads.
Root relaxation solution time = 0.01 sec. (6.11 ticks)

        Nodes                                         Cuts/
   Node  Left     Objective  IInf  Best Integer    Best Bound    ItCnt     Gap

*     0+    0                         3230.0000        0.0000           100.00%
*     0+    0                         2145.0000        0.0000           100.00%
      0     0      187.5000    61     2145.0000      187.5000      325   91.26%
      0     0      197.2500    50     2145.0000      Cuts: 51      388   90.80%
      0     0      201.6377    51     2145.0000      Cuts: 51      471   90.60%
      0     0      202.6955    68     2145.0000      Cuts: 32      538   90.55%
      0     0      202.6955    61     2145.0000      Cuts: 33      595   90.55%
      0     0      203.0713    57     2145.0000      Cuts: 16      640   90.53%
Detecting symmetries...
      0     0      203.3000    39     2145.0000      Cuts: 26      678   90.52%
*     0+    0                          308.0000      203.3000            33.99%
      0     0      204.0000    18      308.0000      Cuts: 24      728   33.77%
      0     0      204.0000    20      308.0000      Cuts: 18      766   33.77%
*     0+    0                          257.0000      204.0000            20.62%
Detecting symmetries...

Repeating presolve.
Tried aggregator 1 time.
MIP Presolve eliminated 333 rows and 363 columns.
Reduced MIP has 399 rows, 650 columns, and 2770 nonzeros.
Reduced MIP has 626 binaries, 0 generals, 0 SOSs, and 0 indicators.
Presolve time = 0.00 sec. (1.66 ticks)
Probing time = 0.00 sec. (2.43 ticks)
Tried aggregator 1 time.
Detecting symmetries...
Reduced MIP has 399 rows, 650 columns, and 2770 nonzeros.
Reduced MIP has 626 binaries, 0 generals, 0 SOSs, and 0 indicators.
Presolve time = 0.00 sec. (1.79 ticks)
Represolve time = 0.01 sec. (8.20 ticks)
Probing time = 0.00 sec. (2.43 ticks)
Clique table members: 1965.
MIP emphasis: balance optimality and feasibility.
MIP search method: dynamic search.
Parallel mode: deterministic, using up to 12 threads.
Root relaxation solution time = 0.00 sec. (6.76 ticks)

        Nodes                                         Cuts/
   Node  Left     Objective  IInf  Best Integer    Best Bound    ItCnt     Gap

*     0+    0                          257.0000      204.0000            20.62%
      0     0      204.0000    20      257.0000      204.0000     1098   20.62%
*     0+    0                          212.0000      204.0000             3.77%
      0     0      204.0034    45      212.0000       Cuts: 5     1202    3.77%
      0     0      204.1815    70      212.0000      Cuts: 36     1243    3.69%
      0     0      204.3051    33      212.0000      Cuts: 28     1285    3.63%
      0     0      204.3600    63      212.0000      Cuts: 18     1304    3.60%
      0     0      204.5996    83      212.0000      Cuts: 56     1346    3.49%
      0     0      204.7500    72      212.0000      Cuts: 57     1389    3.42%
      0     0      204.9078    63      212.0000      Cuts: 29     1439    3.35%
      0     0      205.0839    85      212.0000      Cuts: 40     1471    3.26%
      0     0      205.2769    60      212.0000      Cuts: 36     1511    3.17%
      0     0      205.4323    91      212.0000       Cuts: 8     1539    3.10%
      0     0      205.6053    83      212.0000      Cuts: 37     1571    3.02%
      0     0      205.7477    85      212.0000      Cuts: 18     1603    2.95%
      0     0      205.8052    89      212.0000      Cuts: 13     1622    2.92%
      0     0      205.8191    98      212.0000      Cuts: 10     1638    2.92%
      0     0      205.8453    84      212.0000      Cuts: 13     1670    2.90%
*     0+    0                          208.0000      205.8453             1.04%
      0     0        cutoff            208.0000      208.0000     1670    0.00%
Elapsed time = 0.34 sec. (225.82 ticks, tree = 0.01 MB, solutions = 6)

GUB cover cuts applied:  15
Clique cuts applied:  10
Cover cuts applied:  26
Implied bound cuts applied:  3
Flow cuts applied:  1
Mixed integer rounding cuts applied:  41
Zero-half cuts applied:  23
Gomory fractional cuts applied:  4

Root node processing (before b&c):
  Real time             =    0.34 sec. (225.89 ticks)
Parallel b&c, 12 threads:
  Real time             =    0.00 sec. (0.00 ticks)
  Sync time (average)   =    0.00 sec.
  Wait time (average)   =    0.00 sec.
                          ------------
Total (root+branch&cut) =    0.34 sec. (225.89 ticks)
